WARNING: for repeatability, setting FPU to use double precision
============================[ Problem Statistics ]=============================
|                                                                             |
|  Number of variables:           700                                         |
|  Number of clauses:           27278                                         |
|  Parse time:                   0.01 s                                       |
|                                                                             |
c ============================[ Search Statistics ]==============================
c | Conflicts |          ORIGINAL         |          LEARNT          | Progress |
c |           |    Vars  Clauses Literals |    Limit  Clauses Lit/Cl |          |
c ===============================================================================
c Switched to VSIDS.
c Switched to LRB.
c Switched to VSIDS.
c Switched to LRB.
c Switched to VSIDS.
c Switched to LRB.
c Switched to VSIDS.
c Switched to LRB.
c Switched to VSIDS.
c Switched to LRB.
c Switched to VSIDS.
c Switched to LRB.
c Switched to VSIDS.
c Switched to LRB.
c ===============================================================================
restarts                  : 83380
conflicts                 : 18309377       (5189 /sec)
decisions                 : 35173456       (0.00 % random) (9968 /sec)
propagations              : 1000188638     (283446 /sec)
conflict literals         : 4732554151     (8.11 % deleted)

conflicts w/ DIP found    : 11156499       (60.93 % of conflicts)
conflicts w/ dangerous DIP: 0              (0.00 % of conflicts)
conflicts w/ DIP-learning : 9209           (0.05 % of conflicts)
decisions on ext vars     : 747            (0.00 % of decisions)
total ext vars            : 1702        
tried delete ext vars     : 199         
deleted ext vars          : 199         
max ext vars              : 1503        

Memory used               : 350.00 MB
CPU time                  : 3528.68 s
DIP computation time      : 96.0137 s (2.72 % of total time)
ER_sel time               : 33.0454 s
ER_add time               : 0.009292 s
ER_delC time              : 0 s
ER_delV time              : 0.348378 s
ER_sub time               : 35.664 s
ER_stat time              : 0 s

INDETERMINATE
